3 
4 
5  02 24 44 58 
6  05 13 20 28 36 42 51 58 
7  06 12 18 26 33 41 48 56 
8  03 11 18 26 33 41 48 56 
9  03 11 18 26 33 41 48 56 
10  03 11 18 26 33 41 48 56 
11  03 11 18 26 33 41 48 56 
12  03 11 18 26 33 41 48 56 
13  03 12 19 27 34 42 49 57 
14  04 12 19 27 34 42 49 57 
15  04 12 18 27 34 42 49 57 
16  04 12 18 27 34 42 49 57 
17  04 12 19 27 34 42 49 57 
18  04 12 19 27 34 42 50 57 
19  04 11 18 26 33 41 48 56 
20  03 11 18 28 43 58 
21  13 28 43 58 
22  13 25 38 53 
23  08 
0 
